pair_coeff     1 1 0.066 3.4
bond_coeff     1 469.0 1.4
angle_coeff    1 63.0 120.0
dihedral_coeff 1 0.0 7.25 0.0 0.0
improper_coeff 1 5.0 180.0